60
473
245
36
0
30
114
107
94
24
155
29
0
116
203
171
17
31
14
77
118
172
0
160
110
1862
0
21
0
12
41
2797
0
11
95
258
57
31
895
22
128
147
60
0
41
335
230
129
54
13
500
76
55
19
83
0
116
34
61
21
29
13
31
168
25
28
592
47
138
18
29
0
36
506
59
17
63
41
0
0
0
0
22
18
31
18
92
63
55
135
88
16
40
71
65
0
40
0
58
17
